db/inputs/7171713817546277802513916122522416915.smt2
(set-logic QF_FP)
(declare-const x0 (_ FloatingPoint 8 24))
(declare-const x1 (_ FloatingPoint 8 24))
(declare-const x2 (_ FloatingPoint 8 24))
(declare-const x3 (_ FloatingPoint 8 24))
(declare-const x4 (_ FloatingPoint 8 24))
(declare-const x5 (_ FloatingPoint 8 24))
(declare-const x6 (_ FloatingPoint 8 24))
(declare-const x7 (_ FloatingPoint 8 24))
(declare-const x8 (_ FloatingPoint 8 24))
(declare-const x9 (_ FloatingPoint 8 24))
(declare-const x10 (_ FloatingPoint 8 24))
(declare-const x11 (_ FloatingPoint 8 24))
(declare-const x12 (_ FloatingPoint 8 24))
(assert (fp.lt (fp.div RNE x7 x8) (fp.neg x6)))
(assert (fp.gt (fp.mul RNE x3 x7) (fp.neg x10)))
(assert (fp.leq (fp.div RNE x2 x6) (fp.mul RNE x11 x0)))
(assert (fp.gt (fp.div RNE x11 x0) (fp.mul RNE x3 x5)))
(assert (fp.eq (fp.add RNE x8 x0) (fp.neg x11)))
(assert (fp.geq (fp.add RNE x12 x0) (fp.mul RNE x1 x8)))
(assert (fp.eq (fp.div RNE x1 x12) (fp.add RNE x3 x2)))
(check-sat)
