db/data/7171713817546277802513916122522416915.z3.out
sat
-------------------
21.476646040
